\Generated by Cardinal Operations

Maximize
   1669.65 x_('A','C')15:45_f + 506.95 x_('A','C')15:45_l 
   + 1670.39 x_('A','C')17:25_f + 473.92 x_('A','C')17:25_l 
   + 1653.2 x_('A','C')0:00_f + 473.63 x_('A','C')0:00_l 
   + 1455.47 x_('A','B')22:45_f + 436.14 x_('A','B')22:45_l 
   + 1477.78 x_('A','B')13:55_f + 464.67 x_('A','B')13:55_l 
   + 1583 x_('C','B')16:55_f + 558.48 x_('C','B')16:55_l 
Subject To
 capacity_constraint_('A','C')15:45: 1.2 x_('A','C')15:45_f 
   + x_('A','C')15:45_l <= 187
 balance_constraint_('A','C')15:45: 4.92 x_('A','C')15:45_0 
   + 0.72 x_('A','C')15:45_f + 0.72 x_('A','C')15:45_l <= 154.21
 scale_constraint_('A','C')15:45_f: 2.803 x_('A','C')15:45_0 
   - 0.9 x_('A','C')15:45_f >= 0
 scale_constraint_('A','C')15:45_l: 1.367 x_('A','C')15:45_0 
   - 0.9 x_('A','C')15:45_l >= 0
 capacity_constraint_('A','C')17:25: 1.2 x_('A','C')17:25_f 
   + x_('A','C')17:25_l <= 187
 balance_constraint_('A','C')17:25: 4.92 x_('A','C')17:25_0 
   + 0.72 x_('A','C')17:25_f + 0.72 x_('A','C')17:25_l <= 149.28
 scale_constraint_('A','C')17:25_f: 2.803 x_('A','C')17:25_0 
   - 0.9 x_('A','C')17:25_f >= 0
 scale_constraint_('A','C')17:25_l: 1.367 x_('A','C')17:25_0 
   - 0.9 x_('A','C')17:25_l >= 0
 capacity_constraint_('A','C')0:00: 1.2 x_('A','C')0:00_f 
   + x_('A','C')0:00_l <= 187
 balance_constraint_('A','C')0:00: 4.92 x_('A','C')0:00_0 
   + 0.72 x_('A','C')0:00_f + 0.72 x_('A','C')0:00_l <= 156.57
 scale_constraint_('A','C')0:00_f: 2.671 x_('A','C')0:00_0 
   - 0.9 x_('A','C')0:00_f >= 0
 scale_constraint_('A','C')0:00_l: 1.303 x_('A','C')0:00_0 
   - 0.9 x_('A','C')0:00_l >= 0
 capacity_constraint_('A','B')22:45: 1.2 x_('A','B')22:45_f 
   + x_('A','B')22:45_l <= 187
 balance_constraint_('A','B')22:45: 4.92 x_('A','B')22:45_0 
   + 0.72 x_('A','B')22:45_f + 0.72 x_('A','B')22:45_l <= 159.14
 scale_constraint_('A','B')22:45_f: 2.671 x_('A','B')22:45_0 
   - 0.9 x_('A','B')22:45_f >= 0
 scale_constraint_('A','B')22:45_l: 1.303 x_('A','B')22:45_0 
   - 0.9 x_('A','B')22:45_l >= 0
 capacity_constraint_('A','B')13:55: 1.2 x_('A','B')13:55_f 
   + x_('A','B')13:55_l <= 187
 balance_constraint_('A','B')13:55: 4.92 x_('A','B')13:55_0 
   + 0.72 x_('A','B')13:55_f + 0.72 x_('A','B')13:55_l <= 170.64
 scale_constraint_('A','B')13:55_f: 2.803 x_('A','B')13:55_0 
   - 0.9 x_('A','B')13:55_f >= 0
 scale_constraint_('A','B')13:55_l: 1.367 x_('A','B')13:55_0 
   - 0.9 x_('A','B')13:55_l >= 0
 capacity_constraint_('C','B')16:55: 1.2 x_('C','B')16:55_f 
   + x_('C','B')16:55_l <= 187
 balance_constraint_('C','B')16:55: 1.72 x_('C','B')16:55_0 
   + 0.97 x_('C','B')16:55_f + 0.97 x_('C','B')16:55_l <= 4.4
 scale_constraint_('C','B')16:55_f: 2.826 x_('C','B')16:55_0 
   - 1.2 x_('C','B')16:55_f >= 0
 scale_constraint_('C','B')16:55_l: 1.475 x_('C','B')16:55_0 
   - 1.2 x_('C','B')16:55_l >= 0
END

